Welcome to the CBC MILP Solver 
Version: 2.10.10 
Build Date: Apr 19 2023 

command line - cbc /tmp/4d72e7c206fe4be3abcc6f392274025f-pulp.mps max sec 15 timeMode elapsed branch printingOptions all solution /tmp/4d72e7c206fe4be3abcc6f392274025f-pulp.sol (default strategy 1)
At line 2 NAME          MODEL
At line 3 ROWS
At line 21254 COLUMNS
At line 87268 RHS
At line 108518 BOUNDS
At line 117119 ENDATA
Problem MODEL has 21249 rows, 8600 columns and 64945 elements
Coin0008I MODEL read with 0 errors
seconds was changed from 1e+100 to 15
Option for timeMode changed from cpu to elapsed
Presolve 3352 (-17897) rows, 2515 (-6085) columns and 10934 (-54011) elements
Perturbing problem by 0.001% of 1 - largest nonzero change 0.00097359812 ( 0.19471962%) - largest zero change 0.00096611504
0  Obj 3 Primal inf 122.79163 (81) Dual inf 26.646754 (50)
142  Obj 14.973923 Primal inf 237.86727 (220)
284  Obj 14.964723 Primal inf 244.16787 (295)
426  Obj 14.960325 Primal inf 232.45207 (300)
568  Obj 14.954814 Primal inf 161.2052 (202)
710  Obj 14.952421 Primal inf 173.72666 (258)
852  Obj 14.95054 Primal inf 146.29319 (207)
994  Obj 14.949714 Primal inf 98.351742 (129)
1136  Obj 14.946836 Primal inf 89.472798 (108)
1278  Obj 14.942543 Primal inf 15.635517 (14)
1293  Obj 14.942533
Optimal - objective value 15
After Postsolve, objective 15, infeasibilities - dual 0 (0), primal 0 (0)
Optimal objective 15 - 1293 iterations time 0.122, Presolve 0.05
Option for printingOptions changed from normal to all
Total time (CPU seconds):       0.31   (Wallclock seconds):       0.12

Welcome to the CBC MILP Solver 
Version: 2.10.10 
Build Date: Apr 19 2023 

command line - cbc /tmp/1741be1c0fe443e2b06c2252186ef50b-pulp.mps max sec 15 timeMode elapsed branch printingOptions all solution /tmp/1741be1c0fe443e2b06c2252186ef50b-pulp.sol (default strategy 1)
At line 2 NAME          MODEL
At line 3 ROWS
At line 21254 COLUMNS
At line 104468 RHS
At line 125718 BOUNDS
At line 134319 ENDATA
Problem MODEL has 21249 rows, 8600 columns and 64945 elements
Coin0008I MODEL read with 0 errors
seconds was changed from 1e+100 to 15
Option for timeMode changed from cpu to elapsed
Continuous objective value is 15 - 0.13 seconds
Cgl0002I 3783 variables fixed
Cgl0003I 606 fixed, 0 tightened bounds, 1562 strengthened rows, 1089 substitutions
Cgl0003I 0 fixed, 0 tightened bounds, 202 strengthened rows, 70 substitutions
Cgl0003I 6 fixed, 0 tightened bounds, 359 strengthened rows, 32 substitutions
Cgl0003I 31 fixed, 0 tightened bounds, 97 strengthened rows, 0 substitutions
Cgl0003I 1 fixed, 0 tightened bounds, 45 strengthened rows, 0 substitutions
Cgl0003I 0 fixed, 0 tightened bounds, 40 strengthened rows, 0 substitutions
Cgl0003I 0 fixed, 0 tightened bounds, 106 strengthened rows, 308 substitutions
Cgl0003I 0 fixed, 0 tightened bounds, 18 strengthened rows, 0 substitutions
Cgl0003I 6 fixed, 0 tightened bounds, 16 strengthened rows, 0 substitutions
Cgl0003I 0 fixed, 0 tightened bounds, 10 strengthened rows, 0 substitutions
Cgl0003I 0 fixed, 0 tightened bounds, 16 strengthened rows, 0 substitutions
Cgl0003I 0 fixed, 0 tightened bounds, 16 strengthened rows, 0 substitutions
Cgl0003I 0 fixed, 0 tightened bounds, 16 strengthened rows, 0 substitutions
Cgl0003I 0 fixed, 0 tightened bounds, 16 strengthened rows, 0 substitutions
Cgl0004I processed model has 1747 rows, 1712 columns (1712 integer (1644 of which binary)) and 7909 elements
Cbc0038I Initial state - 0 integers unsatisfied sum - 2.9976e-14
Cbc0038I Solution found of 15
Cbc0038I Cleaned solution of 15
Cbc0038I Before mini branch and bound, 1712 integers at bound fixed and 0 continuous
Cbc0038I Mini branch and bound did not improve solution (0.26 seconds)
Cbc0038I After 0.26 seconds - Feasibility pump exiting with objective of 15 - took 0.00 seconds
Cbc0012I Integer solution of 15 found by feasibility pump after 0 iterations and 0 nodes (0.26 seconds)
Cbc0001I Search completed - best objective 14.9999999999997, took 0 iterations and 0 nodes (0.26 seconds)
Cbc0035I Maximum depth 0, 0 variables fixed on reduced cost
Cuts at root node changed objective from 15 to 15
Probing was tried 0 times and created 0 cuts of which 0 were active after adding rounds of cuts (0.000 seconds)
Gomory was tried 0 times and created 0 cuts of which 0 were active after adding rounds of cuts (0.000 seconds)
Knapsack was tried 0 times and created 0 cuts of which 0 were active after adding rounds of cuts (0.000 seconds)
Clique was tried 0 times and created 0 cuts of which 0 were active after adding rounds of cuts (0.000 seconds)
MixedIntegerRounding2 was tried 0 times and created 0 cuts of which 0 were active after adding rounds of cuts (0.000 seconds)
FlowCover was tried 0 times and created 0 cuts of which 0 were active after adding rounds of cuts (0.000 seconds)
TwoMirCuts was tried 0 times and created 0 cuts of which 0 were active after adding rounds of cuts (0.000 seconds)
ZeroHalf was tried 0 times and created 0 cuts of which 0 were active after adding rounds of cuts (0.000 seconds)

Result - Optimal solution found

Objective value:                15.00000000
Enumerated nodes:               0
Total iterations:               0
Time (CPU seconds):             0.36
Time (Wallclock seconds):       0.29

Option for printingOptions changed from normal to all
Total time (CPU seconds):       0.58   (Wallclock seconds):       0.37

